# Solution for model UnassignedDistance
# Objective value = 4.5187910455268820e-05
x[0][0] 3.6097834213198210e+00
x[0][1] 1.4017648725495795e+00
x[0][2] 0
x[1][0] 2.1098450858577915e+00
x[1][1] 1.3860552468956546e+00
x[1][2] 0
x[2][0] 1.4999183292673934e+00
x[2][1] 1.5657803793943270e-02
x[2][2] 0
x[3][0] 0
x[3][1] 0
x[3][2] 0
v[0,1][0] 1.4999383354620295e+00
v[0,1][1] 1.5709625653924874e-02
v[0,1][2] 0
v[0,2][0] 2.1098650920524276e+00
v[0,2][1] 1.3861070687556363e+00
v[0,2][2] 0
v[0,3][0] 3.6097834213198206e+00
v[0,3][1] 1.4017648725495790e+00
v[0,3][2] 0
v[1,2][0] 6.0992675659039819e-01
v[1,2][1] 1.3703974431017114e+00
v[1,2][2] 0
v[1,3][0] 2.1098450858577920e+00
v[1,3][1] 1.3860552468956557e+00
v[1,3][2] 0
v[2,3][0] 1.4999183292673934e+00
v[2,3][1] 1.5657803793943270e-02
v[2,3][2] 0
alpha[0] 0
alpha[1] 0
alpha[2] 0
alpha[3] 4.5187910455268820e-05
alpha[4] 0
alpha[5] 0
y[0] 0
y[1] 0
y[2] 0
y[3] 4.5187910455268820e-05
y[4] 0
y[5] 0
w[0,1] 1.5000206003085348e+00
w[0,2] 2.5244451879104552e+00
w[0,3] 3.8724
w[1,2] 1.4999999999999989e+00
w[1,3] 2.5244
w[2,3] 1.5
a[0,1,0] 9.9999004879693709e-01
a[0,1,1] 9.9512030629193577e-06
a[0,1,2] 0
a[0,1,3] 0
a[0,1,4] 0
a[0,1,5] 0
a[0,2,0] 0
a[0,2,1] 0
a[0,2,2] 0
a[0,2,3] 1
a[0,2,4] 0
a[0,2,5] 0
a[0,3,0] 0
a[0,3,1] 0
a[0,3,2] 0
a[0,3,3] 0
a[0,3,4] 0
a[0,3,5] 1
a[1,2,0] 0
a[1,2,1] 9.9999004879693709e-01
a[1,2,2] 9.9512030629078652e-06
a[1,2,3] 0
a[1,2,4] 0
a[1,2,5] 0
a[1,3,0] 0
a[1,3,1] 0
a[1,3,2] 0
a[1,3,3] 0
a[1,3,4] 1
a[1,3,5] 0
a[2,3,0] 9.9512030629193577e-06
a[2,3,1] 0
a[2,3,2] 9.9999004879693709e-01
a[2,3,3] 0
a[2,3,4] 0
a[2,3,5] 0
z[0,1,0] 1.4999850731954056e+00
z[0,1,1] 2.9456651519279279e-06
z[0,1,2] 0
z[0,1,3] 0
z[0,1,4] 0
z[0,1,5] 0
z[0,2,0] 0
z[0,2,1] 0
z[0,2,2] 0
z[0,2,3] 2.5244451879104552e+00
z[0,2,4] 0
z[0,2,5] 0
z[0,3,0] 0
z[0,3,1] 0
z[0,3,2] 0
z[0,3,3] 0
z[0,3,4] 0
z[0,3,5] 3.8724
z[1,2,0] 0
z[1,2,1] 1.4999850726663464e+00
z[1,2,2] 1.4926804594379037e-05
z[1,2,3] 0
z[1,2,4] 0
z[1,2,5] 0
z[1,3,0] 0
z[1,3,1] 0
z[1,3,2] 0
z[1,3,3] 0
z[1,3,4] 2.5244
z[1,3,5] 0
z[2,3,0] 1.4926804594379037e-05
z[2,3,1] 0
z[2,3,2] 1.4999850731954056e+00
z[2,3,3] 0
z[2,3,4] 0
z[2,3,5] 0
